11 16 7 14 16 7 9 5 17 4 8 6 
18 13 6 18 8 4 11 14 7 7 15 6 
11 6 5 15 2 14 10 8 17 12 1 14 
3 1 16 12 5 5 13 1 19 9 7 1 
8 9 1 11 11 3 6 14 19 15 11 6 
14 4 19 10 17 17 19 20 17 13 13 6 
19 6 9 9 14 6 1 12 8 15 4 2 
10 18 19 9 14 3 5 17 7 13 10 6 
5 15 8 16 18 15 18 15 16 13 20 10 
12 4 11 14 4 13 2 2 2 20 2 5 
20 2 19 1 8 12 15 7 1 6 4 14 
11 10 15 9 4 4 2 4 17 1 3 10 
